(set-info :smt-lib-version 2.6)
(set-logic UF)
(set-info :source |Benchmarks from the paper: "Extending Sledgehammer with SMT Solvers" by Jasmin Blanchette, Sascha Bohme, and Lawrence C. Paulson, CADE 2011.  Translated to SMT2 by Andrew Reynolds and Morgan Deters.|)
(set-info :category "industrial")
(set-info :status unknown)
(declare-sort S1 0)
(declare-sort S2 0)
(declare-sort S3 0)
(declare-sort S4 0)
(declare-sort S5 0)
(declare-sort S6 0)
(declare-sort S7 0)
(declare-sort S8 0)
(declare-sort S9 0)
(declare-sort S10 0)
(declare-sort S11 0)
(declare-sort S12 0)
(declare-sort S13 0)
(declare-sort S14 0)
(declare-sort S15 0)
(declare-sort S16 0)
(declare-sort S17 0)
(declare-sort S18 0)
(declare-sort S19 0)
(declare-sort S20 0)
(declare-sort S21 0)
(declare-sort S22 0)
(declare-sort S23 0)
(declare-sort S24 0)
(declare-sort S25 0)
(declare-sort S26 0)
(declare-sort S27 0)
(declare-sort S28 0)
(declare-sort S29 0)
(declare-fun f1 () S1)
(declare-fun f2 () S1)
(declare-fun f3 (S2 S3) S1)
(declare-fun f4 () S2)
(declare-fun f5 (S4 S5) S3)
(declare-fun f6 (S6 S3) S4)
(declare-fun f7 (S7 S3) S6)
(declare-fun f8 () S7)
(declare-fun f9 (S8 S3) S3)
(declare-fun f10 () S8)
(declare-fun f11 () S3)
(declare-fun f12 () S4)
(declare-fun f13 () S5)
(declare-fun f14 () S5)
(declare-fun f15 () S6)
(declare-fun f16 (S9 S5) S1)
(declare-fun f17 (S10 S5) S9)
(declare-fun f18 () S10)
(declare-fun f19 (S12 S11) S1)
(declare-fun f20 (S13 S11) S12)
(declare-fun f21 () S13)
(declare-fun f22 (S14 S5) S5)
(declare-fun f23 (S15 S11) S11)
(declare-fun f24 () S14)
(declare-fun f25 (S16 S5) S11)
(declare-fun f26 () S16)
(declare-fun f27 () S11)
(declare-fun f28 () S5)
(declare-fun f29 (S17 S9) S1)
(declare-fun f30 (S18 S5) S17)
(declare-fun f31 () S18)
(declare-fun f32 () S9)
(declare-fun f33 (S19 S12) S1)
(declare-fun f34 (S20 S11) S19)
(declare-fun f35 () S20)
(declare-fun f36 () S12)
(declare-fun f37 (S21 S3) S2)
(declare-fun f38 () S21)
(declare-fun f39 (S22 S3) S8)
(declare-fun f40 () S22)
(declare-fun f41 (S24 S23) S3)
(declare-fun f42 (S25 S3) S24)
(declare-fun f43 (S26 S22) S25)
(declare-fun f44 () S26)
(declare-fun f45 (S27 S23) S1)
(declare-fun f46 (S28 S2) S27)
(declare-fun f47 () S28)
(declare-fun f48 (S29 S3) S5)
(declare-fun f49 () S29)
(declare-fun f50 () S7)
(assert (not (= f1 f2)))
(assert (not (= (f3 f4 (f5 (f6 (f7 f8 (f9 f10 f11)) (f5 f12 f13)) f14)) f1)))
(assert (= (f3 f4 f11) f1))
(assert (forall ((?v0 S5) (?v1 S5)) (= (f3 f4 (f5 (f6 (f7 f8 f11) (f5 f12 ?v0)) ?v1)) f1)))
(assert (forall ((?v0 S3)) (=> (= (f3 f4 ?v0) f1) (= (f3 f4 (f9 f10 ?v0)) f1))))
(assert (forall ((?v0 S5) (?v1 S3)) (= (f5 (f6 (f7 f8 (f5 f12 ?v0)) ?v1) ?v0) ?v1)))
(assert (forall ((?v0 S3) (?v1 S5)) (not (= (f9 f10 ?v0) (f5 f12 ?v1)))))
(assert (forall ((?v0 S5) (?v1 S3)) (not (= (f5 f12 ?v0) (f9 f10 ?v1)))))
(assert (forall ((?v0 S3) (?v1 S3)) (= (= (f9 f10 ?v0) (f9 f10 ?v1)) (= ?v0 ?v1))))
(assert (forall ((?v0 S5) (?v1 S5)) (= (= (f5 f12 ?v0) (f5 f12 ?v1)) (= ?v0 ?v1))))
(assert (forall ((?v0 S3) (?v1 S5)) (=> (= (f3 f4 ?v0) f1) (= (f3 f4 (f5 (f6 f15 ?v0) ?v1)) f1))))
(assert (forall ((?v0 S5) (?v1 S5) (?v2 S3)) (let ((?v_0 (f5 f12 ?v0))) (=> (= (f16 (f17 f18 ?v0) ?v1) f1) (= (f5 (f6 (f7 f8 ?v_0) ?v2) ?v1) ?v_0)))))
(assert (forall ((?v0 S3) (?v1 S5) (?v2 S3)) (= (f5 (f6 (f7 f8 (f5 (f6 f15 ?v0) ?v1)) ?v2) ?v1) ?v0)))
(assert (forall ((?v0 S5)) (not (= (f16 (f17 f18 ?v0) ?v0) f1))))
(assert (forall ((?v0 S5) (?v1 S5)) (= (not (= ?v0 ?v1)) (or (= (f16 (f17 f18 ?v0) ?v1) f1) (= (f16 (f17 f18 ?v1) ?v0) f1)))))
(assert (forall ((?v0 S5) (?v1 S5)) (=> (not (= ?v0 ?v1)) (=> (=> (= (f16 (f17 f18 ?v0) ?v1) f1) false) (=> (=> (= (f16 (f17 f18 ?v1) ?v0) f1) false) false)))))
(assert (forall ((?v0 S5)) (=> (= (f16 (f17 f18 ?v0) ?v0) f1) false)))
(assert (forall ((?v0 S5) (?v1 S5)) (=> (= (f16 (f17 f18 ?v0) ?v1) f1) (not (= ?v1 ?v0)))))
(assert (forall ((?v0 S5) (?v1 S5)) (=> (= (f16 (f17 f18 ?v0) ?v1) f1) (not (= ?v0 ?v1)))))
(assert (forall ((?v0 S5) (?v1 S5) (?v2 S10)) (let ((?v_0 (= (f16 (f17 ?v2 ?v1) ?v0) f1))) (=> (=> (= (f16 (f17 f18 ?v0) ?v1) f1) ?v_0) (=> (=> (= ?v0 ?v1) ?v_0) (=> (=> (= (f16 (f17 f18 ?v1) ?v0) f1) ?v_0) ?v_0))))))
(assert (forall ((?v0 S5)) (not (= (f16 (f17 f18 ?v0) ?v0) f1))))
(assert (forall ((?v0 S11)) (not (= (f19 (f20 f21 ?v0) ?v0) f1))))
(assert (forall ((?v0 S5) (?v1 S5)) (= (not (= ?v0 ?v1)) (or (= (f16 (f17 f18 ?v0) ?v1) f1) (= (f16 (f17 f18 ?v1) ?v0) f1)))))
(assert (forall ((?v0 S11) (?v1 S11)) (= (not (= ?v0 ?v1)) (or (= (f19 (f20 f21 ?v0) ?v1) f1) (= (f19 (f20 f21 ?v1) ?v0) f1)))))
(assert (forall ((?v0 S5) (?v1 S5)) (= (not (= (f16 (f17 f18 ?v0) ?v1) f1)) (or (= (f16 (f17 f18 ?v1) ?v0) f1) (= ?v0 ?v1)))))
(assert (forall ((?v0 S11) (?v1 S11)) (= (not (= (f19 (f20 f21 ?v0) ?v1) f1)) (or (= (f19 (f20 f21 ?v1) ?v0) f1) (= ?v0 ?v1)))))
(assert (forall ((?v0 S5) (?v1 S5)) (or (= (f16 (f17 f18 ?v0) ?v1) f1) (or (= ?v0 ?v1) (= (f16 (f17 f18 ?v1) ?v0) f1)))))
(assert (forall ((?v0 S11) (?v1 S11)) (or (= (f19 (f20 f21 ?v0) ?v1) f1) (or (= ?v0 ?v1) (= (f19 (f20 f21 ?v1) ?v0) f1)))))
(assert (forall ((?v0 S5) (?v1 S5)) (=> (=> (= (f16 (f17 f18 ?v0) ?v1) f1) false) (=> (=> (= ?v0 ?v1) false) (=> (=> (= (f16 (f17 f18 ?v1) ?v0) f1) false) false)))))
(assert (forall ((?v0 S11) (?v1 S11)) (=> (=> (= (f19 (f20 f21 ?v0) ?v1) f1) false) (=> (=> (= ?v0 ?v1) false) (=> (=> (= (f19 (f20 f21 ?v1) ?v0) f1) false) false)))))
(assert (forall ((?v0 S5) (?v1 S5)) (=> (= (f16 (f17 f18 ?v0) ?v1) f1) (=> (=> (not false) (= (f16 (f17 f18 ?v1) ?v0) f1)) false))))
(assert (forall ((?v0 S11) (?v1 S11)) (=> (= (f19 (f20 f21 ?v0) ?v1) f1) (=> (=> (not false) (= (f19 (f20 f21 ?v1) ?v0) f1)) false))))
(assert (forall ((?v0 S5) (?v1 S5) (?v2 S5)) (let ((?v_0 (f17 f18 ?v2))) (=> (= (f16 (f17 f18 ?v0) ?v1) f1) (=> (= (f16 ?v_0 ?v0) f1) (= (f16 ?v_0 ?v1) f1))))))
(assert (forall ((?v0 S11) (?v1 S11) (?v2 S11)) (let ((?v_0 (f20 f21 ?v2))) (=> (= (f19 (f20 f21 ?v0) ?v1) f1) (=> (= (f19 ?v_0 ?v0) f1) (= (f19 ?v_0 ?v1) f1))))))
(assert (forall ((?v0 S5) (?v1 S5) (?v2 S5)) (let ((?v_0 (f17 f18 ?v0))) (=> (= (f16 ?v_0 ?v1) f1) (=> (= (f16 (f17 f18 ?v1) ?v2) f1) (= (f16 ?v_0 ?v2) f1))))))
(assert (forall ((?v0 S11) (?v1 S11) (?v2 S11)) (let ((?v_0 (f20 f21 ?v0))) (=> (= (f19 ?v_0 ?v1) f1) (=> (= (f19 (f20 f21 ?v1) ?v2) f1) (= (f19 ?v_0 ?v2) f1))))))
(assert (forall ((?v0 S5) (?v1 S5) (?v2 S5)) (=> (= (f16 (f17 f18 ?v0) ?v1) f1) (=> (= ?v0 ?v2) (= (f16 (f17 f18 ?v2) ?v1) f1)))))
(assert (forall ((?v0 S11) (?v1 S11) (?v2 S11)) (=> (= (f19 (f20 f21 ?v0) ?v1) f1) (=> (= ?v0 ?v2) (= (f19 (f20 f21 ?v2) ?v1) f1)))))
(assert (forall ((?v0 S5) (?v1 S5) (?v2 S5)) (let ((?v_0 (f17 f18 ?v0))) (=> (= (f16 ?v_0 ?v1) f1) (=> (= ?v1 ?v2) (= (f16 ?v_0 ?v2) f1))))))
(assert (forall ((?v0 S11) (?v1 S11) (?v2 S11)) (let ((?v_0 (f20 f21 ?v0))) (=> (= (f19 ?v_0 ?v1) f1) (=> (= ?v1 ?v2) (= (f19 ?v_0 ?v2) f1))))))
(assert (forall ((?v0 S5) (?v1 S5) (?v2 S5)) (let ((?v_0 (f17 f18 ?v2))) (=> (= ?v0 ?v1) (=> (= (f16 ?v_0 ?v1) f1) (= (f16 ?v_0 ?v0) f1))))))
(assert (forall ((?v0 S11) (?v1 S11) (?v2 S11)) (let ((?v_0 (f20 f21 ?v2))) (=> (= ?v0 ?v1) (=> (= (f19 ?v_0 ?v1) f1) (= (f19 ?v_0 ?v0) f1))))))
(assert (forall ((?v0 S5) (?v1 S5) (?v2 S5)) (=> (= ?v0 ?v1) (=> (= (f16 (f17 f18 ?v1) ?v2) f1) (= (f16 (f17 f18 ?v0) ?v2) f1)))))
(assert (forall ((?v0 S11) (?v1 S11) (?v2 S11)) (=> (= ?v0 ?v1) (=> (= (f19 (f20 f21 ?v1) ?v2) f1) (= (f19 (f20 f21 ?v0) ?v2) f1)))))
(assert (forall ((?v0 S5) (?v1 S5)) (=> (= (f16 (f17 f18 ?v0) ?v1) f1) (=> (= (f16 (f17 f18 ?v1) ?v0) f1) false))))
(assert (forall ((?v0 S11) (?v1 S11)) (=> (= (f19 (f20 f21 ?v0) ?v1) f1) (=> (= (f19 (f20 f21 ?v1) ?v0) f1) false))))
(assert (forall ((?v0 S5) (?v1 S5)) (=> (= (f16 (f17 f18 ?v0) ?v1) f1) (=> (= (f16 (f17 f18 ?v1) ?v0) f1) false))))
(assert (forall ((?v0 S11) (?v1 S11)) (=> (= (f19 (f20 f21 ?v0) ?v1) f1) (=> (= (f19 (f20 f21 ?v1) ?v0) f1) false))))
(assert (forall ((?v0 S5) (?v1 S5) (?v2 S1)) (=> (= (f16 (f17 f18 ?v0) ?v1) f1) (= (=> (= (f16 (f17 f18 ?v1) ?v0) f1) (= ?v2 f1)) true))))
(assert (forall ((?v0 S11) (?v1 S11) (?v2 S1)) (=> (= (f19 (f20 f21 ?v0) ?v1) f1) (= (=> (= (f19 (f20 f21 ?v1) ?v0) f1) (= ?v2 f1)) true))))
(assert (forall ((?v0 S5) (?v1 S5)) (=> (= (f16 (f17 f18 ?v0) ?v1) f1) (= (= ?v1 ?v0) false))))
(assert (forall ((?v0 S11) (?v1 S11)) (=> (= (f19 (f20 f21 ?v0) ?v1) f1) (= (= ?v1 ?v0) false))))
(assert (forall ((?v0 S5) (?v1 S5)) (=> (= (f16 (f17 f18 ?v0) ?v1) f1) (= (= ?v0 ?v1) false))))
(assert (forall ((?v0 S11) (?v1 S11)) (=> (= (f19 (f20 f21 ?v0) ?v1) f1) (= (= ?v0 ?v1) false))))
(assert (forall ((?v0 S5) (?v1 S5)) (=> (= (f16 (f17 f18 ?v0) ?v1) f1) (= (not (= (f16 (f17 f18 ?v1) ?v0) f1)) true))))
(assert (forall ((?v0 S11) (?v1 S11)) (=> (= (f19 (f20 f21 ?v0) ?v1) f1) (= (not (= (f19 (f20 f21 ?v1) ?v0) f1)) true))))
(assert (forall ((?v0 S5) (?v1 S5)) (=> (= (f16 (f17 f18 ?v0) ?v1) f1) (not (= (f16 (f17 f18 ?v1) ?v0) f1)))))
(assert (forall ((?v0 S11) (?v1 S11)) (=> (= (f19 (f20 f21 ?v0) ?v1) f1) (not (= (f19 (f20 f21 ?v1) ?v0) f1)))))
(assert (forall ((?v0 S5) (?v1 S5)) (=> (= (f16 (f17 f18 ?v0) ?v1) f1) (not (= ?v0 ?v1)))))
(assert (forall ((?v0 S11) (?v1 S11)) (=> (= (f19 (f20 f21 ?v0) ?v1) f1) (not (= ?v0 ?v1)))))
(assert (forall ((?v0 S5) (?v1 S5)) (=> (not (= ?v0 ?v1)) (=> (=> (= (f16 (f17 f18 ?v0) ?v1) f1) false) (=> (=> (= (f16 (f17 f18 ?v1) ?v0) f1) false) false)))))
(assert (forall ((?v0 S11) (?v1 S11)) (=> (not (= ?v0 ?v1)) (=> (=> (= (f19 (f20 f21 ?v0) ?v1) f1) false) (=> (=> (= (f19 (f20 f21 ?v1) ?v0) f1) false) false)))))
(assert (forall ((?v0 S5) (?v1 S5)) (=> (not (= (f16 (f17 f18 ?v0) ?v1) f1)) (= (not (= (f16 (f17 f18 ?v1) ?v0) f1)) (= ?v1 ?v0)))))
(assert (forall ((?v0 S11) (?v1 S11)) (=> (not (= (f19 (f20 f21 ?v0) ?v1) f1)) (= (not (= (f19 (f20 f21 ?v1) ?v0) f1)) (= ?v1 ?v0)))))
(assert (forall ((?v0 S5) (?v1 S14) (?v2 S5) (?v3 S5)) (=> (= ?v0 (f22 ?v1 ?v2)) (=> (= (f16 (f17 f18 ?v3) ?v2) f1) (=> (forall ((?v4 S5) (?v5 S5)) (=> (= (f16 (f17 f18 ?v5) ?v4) f1) (= (f16 (f17 f18 (f22 ?v1 ?v5)) (f22 ?v1 ?v4)) f1))) (= (f16 (f17 f18 (f22 ?v1 ?v3)) ?v0) f1))))))
(assert (forall ((?v0 S11) (?v1 S15) (?v2 S11) (?v3 S11)) (=> (= ?v0 (f23 ?v1 ?v2)) (=> (= (f19 (f20 f21 ?v3) ?v2) f1) (=> (forall ((?v4 S11) (?v5 S11)) (=> (= (f19 (f20 f21 ?v5) ?v4) f1) (= (f19 (f20 f21 (f23 ?v1 ?v5)) (f23 ?v1 ?v4)) f1))) (= (f19 (f20 f21 (f23 ?v1 ?v3)) ?v0) f1))))))
(assert (forall ((?v0 S5) (?v1 S5) (?v2 S14) (?v3 S5)) (=> (= (f16 (f17 f18 ?v0) ?v1) f1) (=> (= (f22 ?v2 ?v0) ?v3) (=> (forall ((?v4 S5) (?v5 S5)) (=> (= (f16 (f17 f18 ?v5) ?v4) f1) (= (f16 (f17 f18 (f22 ?v2 ?v5)) (f22 ?v2 ?v4)) f1))) (= (f16 (f17 f18 ?v3) (f22 ?v2 ?v1)) f1))))))
(assert (forall ((?v0 S11) (?v1 S11) (?v2 S15) (?v3 S11)) (=> (= (f19 (f20 f21 ?v0) ?v1) f1) (=> (= (f23 ?v2 ?v0) ?v3) (=> (forall ((?v4 S11) (?v5 S11)) (=> (= (f19 (f20 f21 ?v5) ?v4) f1) (= (f19 (f20 f21 (f23 ?v2 ?v5)) (f23 ?v2 ?v4)) f1))) (= (f19 (f20 f21 ?v3) (f23 ?v2 ?v1)) f1))))))
(assert (forall ((?v0 S11) (?v1 S11)) (=> (not (= ?v0 ?v1)) (=> (=> (= (f19 (f20 f21 ?v0) ?v1) f1) false) (=> (=> (= (f19 (f20 f21 ?v1) ?v0) f1) false) false)))))
(assert (forall ((?v0 S9) (?v1 S5)) (=> (forall ((?v2 S5)) (=> (forall ((?v3 S5)) (=> (= (f16 (f17 f18 ?v3) ?v2) f1) (= (f16 ?v0 ?v3) f1))) (= (f16 ?v0 ?v2) f1))) (= (f16 ?v0 ?v1) f1))))
(assert (forall ((?v0 S9) (?v1 S5)) (=> (forall ((?v2 S5)) (=> (not (= (f16 ?v0 ?v2) f1)) (exists ((?v3 S5)) (and (= (f16 (f17 f18 ?v3) ?v2) f1) (not (= (f16 ?v0 ?v3) f1)))))) (= (f16 ?v0 ?v1) f1))))
(assert (forall ((?v0 S9) (?v1 S5)) (=> (forall ((?v2 S5)) (=> (forall ((?v3 S5)) (=> (= (f16 (f17 f18 ?v3) ?v2) f1) (= (f16 ?v0 ?v3) f1))) (= (f16 ?v0 ?v2) f1))) (= (f16 ?v0 ?v1) f1))))
(assert (forall ((?v0 S5) (?v1 S5)) (=> (= (f16 (f17 f18 (f22 f24 ?v0)) (f22 f24 ?v1)) f1) (= (f16 (f17 f18 ?v0) ?v1) f1))))
(assert (forall ((?v0 S5) (?v1 S5)) (=> (= (f19 (f20 f21 (f25 f26 ?v0)) (f25 f26 ?v1)) f1) (= (f16 (f17 f18 ?v0) ?v1) f1))))
(assert (forall ((?v0 S5) (?v1 S5)) (=> (= (f16 (f17 f18 ?v0) ?v1) f1) (= (f16 (f17 f18 (f22 f24 ?v0)) (f22 f24 ?v1)) f1))))
(assert (forall ((?v0 S5) (?v1 S5)) (=> (= (f16 (f17 f18 ?v0) ?v1) f1) (= (f19 (f20 f21 (f25 f26 ?v0)) (f25 f26 ?v1)) f1))))
(assert (forall ((?v0 S5) (?v1 S5)) (= (= (f22 f24 ?v0) (f22 f24 ?v1)) (= ?v0 ?v1))))
(assert (forall ((?v0 S5) (?v1 S5)) (= (= (f25 f26 ?v0) (f25 f26 ?v1)) (= ?v0 ?v1))))
(assert (forall ((?v0 S5) (?v1 S5)) (= (= (f16 (f17 f18 (f22 f24 ?v0)) (f22 f24 ?v1)) f1) (= (f16 (f17 f18 ?v0) ?v1) f1))))
(assert (forall ((?v0 S5) (?v1 S5)) (= (= (f19 (f20 f21 (f25 f26 ?v0)) (f25 f26 ?v1)) f1) (= (f16 (f17 f18 ?v0) ?v1) f1))))
(assert (forall ((?v0 S5) (?v1 S5)) (= (= (f19 (f20 f21 (f25 f26 ?v0)) (f25 f26 ?v1)) f1) (= (f16 (f17 f18 ?v0) ?v1) f1))))
(assert (forall ((?v0 S5) (?v1 S5)) (= (= (f19 (f20 f21 (f25 f26 ?v0)) (f25 f26 ?v1)) f1) (= (f16 (f17 f18 ?v0) ?v1) f1))))
(assert (forall ((?v0 S5)) (not (= (f19 (f20 f21 (f25 f26 ?v0)) f27) f1))))
(assert (forall ((?v0 S5)) (not (= (f16 (f17 f18 (f22 f24 ?v0)) f28) f1))))
(assert (forall ((?v0 S5)) (= (f29 (f30 f31 (f22 f24 ?v0)) f32) f1)))
(assert (forall ((?v0 S5)) (= (f33 (f34 f35 (f25 f26 ?v0)) f36) f1)))
(assert (forall ((?v0 S5) (?v1 S3)) (=> (= (f3 (f37 f38 (f5 f12 ?v0)) ?v1) f1) false)))
(assert (forall ((?v0 S11) (?v1 S12)) (= (= (f33 (f34 f35 ?v0) ?v1) f1) (= (f19 ?v1 ?v0) f1))))
(assert (forall ((?v0 S5) (?v1 S9)) (= (= (f29 (f30 f31 ?v0) ?v1) f1) (= (f16 ?v1 ?v0) f1))))
(assert (forall ((?v0 S5)) (=> (= (f16 (f17 f18 ?v0) f28) f1) false)))
(assert (forall ((?v0 S3) (?v1 S3) (?v2 S3)) (=> (= (f3 (f37 f38 ?v0) ?v1) f1) (= (f3 (f37 f38 (f9 (f39 f40 ?v0) ?v2)) (f9 (f39 f40 ?v1) ?v2)) f1))))
(assert (forall ((?v0 S3) (?v1 S3) (?v2 S3)) (let ((?v_0 (f39 f40 ?v2))) (=> (= (f3 (f37 f38 ?v0) ?v1) f1) (= (f3 (f37 f38 (f9 ?v_0 ?v0)) (f9 ?v_0 ?v1)) f1)))))
(assert (forall ((?v0 S3) (?v1 S3)) (=> (= (f3 (f37 f38 ?v0) ?v1) f1) (= (f3 (f37 f38 (f9 f10 ?v0)) (f9 f10 ?v1)) f1))))
(assert (forall ((?v0 S3) (?v1 S3)) (= (f3 (f37 f38 (f9 (f39 f40 (f9 f10 ?v0)) ?v1)) (f5 (f6 (f7 f8 ?v0) ?v1) f28)) f1)))
(assert (forall ((?v0 S5)) (not (= (f19 (f20 f21 (f25 f26 ?v0)) f27) f1))))
(assert (forall ((?v0 S5)) (= (= (f19 (f20 f21 f27) (f25 f26 ?v0)) f1) (= (f16 (f17 f18 f28) ?v0) f1))))
(assert (= (f25 f26 f28) f27))
(assert (= (f22 f24 f28) f28))
(assert (= f27 (f25 f26 f28)))
(assert (= (f25 f26 f28) f27))
(assert (forall ((?v0 S5)) (= (= (f25 f26 ?v0) f27) (= ?v0 f28))))
(assert (forall ((?v0 S5) (?v1 S5)) (= (= (f25 f26 ?v0) (f25 f26 ?v1)) (= ?v0 ?v1))))
(assert (forall ((?v0 S5) (?v1 S5)) (= (= (f25 f26 ?v0) (f25 f26 ?v1)) (= ?v0 ?v1))))
(assert (forall ((?v0 S1) (?v1 S5) (?v2 S5)) (let ((?v_0 (= ?v0 f1))) (= (ite ?v_0 (f25 f26 ?v1) (f25 f26 ?v2)) (f25 f26 (ite ?v_0 ?v1 ?v2))))))
(assert (forall ((?v0 S3) (?v1 S3) (?v2 S3) (?v3 S3)) (= (= (f9 (f39 f40 ?v0) ?v1) (f9 (f39 f40 ?v2) ?v3)) (and (= ?v0 ?v2) (= ?v1 ?v3)))))
(assert (= (f33 (f34 f35 f27) f36) f1))
(assert (= (f29 (f30 f31 f28) f32) f1))
(assert (forall ((?v0 S11) (?v1 S11)) (or (= (f19 (f20 f21 ?v0) ?v1) f1) (or (= ?v0 ?v1) (= (f19 (f20 f21 ?v1) ?v0) f1)))))
(assert (forall ((?v0 S3) (?v1 S3) (?v2 S3)) (not (= (f9 f10 ?v0) (f9 (f39 f40 ?v1) ?v2)))))
(assert (forall ((?v0 S5) (?v1 S3) (?v2 S3)) (not (= (f5 f12 ?v0) (f9 (f39 f40 ?v1) ?v2)))))
(assert (forall ((?v0 S3) (?v1 S3) (?v2 S3)) (not (= (f9 (f39 f40 ?v0) ?v1) (f9 f10 ?v2)))))
(assert (forall ((?v0 S3) (?v1 S3) (?v2 S5)) (not (= (f9 (f39 f40 ?v0) ?v1) (f5 f12 ?v2)))))
(assert (forall ((?v0 S3) (?v1 S3) (?v2 S3) (?v3 S5)) (= (f5 (f6 (f7 f8 (f9 (f39 f40 ?v0) ?v1)) ?v2) ?v3) (f9 (f39 f40 (f5 (f6 (f7 f8 ?v0) ?v2) ?v3)) (f5 (f6 (f7 f8 ?v1) ?v2) ?v3)))))
(assert (forall ((?v0 S3) (?v1 S3) (?v2 S5)) (= (f5 (f6 f15 (f9 (f39 f40 ?v0) ?v1)) ?v2) (f9 (f39 f40 (f5 (f6 f15 ?v0) ?v2)) (f5 (f6 f15 ?v1) ?v2)))))
(assert (forall ((?v0 S5)) (=> (=> (= ?v0 f28) false) (= (f16 (f17 f18 f28) ?v0) f1))))
(assert (forall ((?v0 S5) (?v1 S5)) (=> (= (f16 (f17 f18 ?v0) ?v1) f1) (not (= ?v1 f28)))))
(assert (forall ((?v0 S5)) (= (= (f16 (f17 f18 ?v0) f28) f1) false)))
(assert (forall ((?v0 S5)) (= (not (= ?v0 f28)) (= (f16 (f17 f18 f28) ?v0) f1))))
(assert (forall ((?v0 S5)) (not (= (f16 (f17 f18 ?v0) f28) f1))))
(assert (forall ((?v0 S3) (?v1 S3) (?v2 S3) (?v3 S5)) (=> (= (f3 (f37 f38 ?v0) ?v1) f1) (= (f3 (f37 f38 (f5 (f6 (f7 f8 ?v0) ?v2) ?v3)) (f5 (f6 (f7 f8 ?v1) ?v2) ?v3)) f1))))
(assert (forall ((?v0 S3) (?v1 S3) (?v2 S5)) (=> (= (f3 (f37 f38 ?v0) ?v1) f1) (= (f3 (f37 f38 (f5 (f6 f15 ?v0) ?v2)) (f5 (f6 f15 ?v1) ?v2)) f1))))
(assert (forall ((?v0 S5)) (= (= (f19 (f20 f21 f27) (f25 f26 ?v0)) f1) (= (f16 (f17 f18 f28) ?v0) f1))))
(assert (forall ((?v0 S5)) (let ((?v_0 (f17 f18 f28))) (= (= (f16 ?v_0 (f22 f24 ?v0)) f1) (= (f16 ?v_0 ?v0) f1)))))
(assert (forall ((?v0 S3) (?v1 S3)) (=> (= (f3 (f37 f38 (f9 f10 ?v0)) ?v1) f1) (=> (forall ((?v2 S3)) (=> (= ?v1 (f9 f10 ?v2)) (=> (= (f3 (f37 f38 ?v0) ?v2) f1) false))) false))))
(assert (forall ((?v0 S11)) (=> (= (f19 (f20 f21 f27) ?v0) f1) (exists ((?v1 S5)) (and (= (f16 (f17 f18 f28) ?v1) f1) (= ?v0 (f25 f26 ?v1)))))))
(assert (forall ((?v0 S5) (?v1 S9)) (=> (= (f29 (f30 f31 ?v0) f32) f1) (=> (forall ((?v2 S5)) (= (f16 ?v1 (f22 f24 ?v2)) f1)) (= (f16 ?v1 ?v0) f1)))))
(assert (forall ((?v0 S11) (?v1 S12)) (=> (= (f33 (f34 f35 ?v0) f36) f1) (=> (forall ((?v2 S5)) (= (f19 ?v1 (f25 f26 ?v2)) f1)) (= (f19 ?v1 ?v0) f1)))))
(assert (forall ((?v0 S5)) (=> (= (f29 (f30 f31 ?v0) f32) f1) (=> (forall ((?v1 S5)) (=> (= ?v0 (f22 f24 ?v1)) false)) false))))
(assert (forall ((?v0 S11)) (=> (= (f33 (f34 f35 ?v0) f36) f1) (=> (forall ((?v1 S5)) (=> (= ?v0 (f25 f26 ?v1)) false)) false))))
(assert (forall ((?v0 S3) (?v1 S3) (?v2 S3)) (=> (= (f3 (f37 f38 (f9 (f39 f40 ?v0) ?v1)) ?v2) f1) (=> (forall ((?v3 S3)) (=> (= ?v2 (f5 (f6 (f7 f8 ?v3) ?v1) f28)) (=> (= ?v0 (f9 f10 ?v3)) false))) (=> (forall ((?v3 S3)) (=> (= ?v2 (f9 (f39 f40 ?v3) ?v1)) (=> (= (f3 (f37 f38 ?v0) ?v3) f1) false))) (=> (forall ((?v3 S3)) (=> (= ?v2 (f9 (f39 f40 ?v0) ?v3)) (=> (= (f3 (f37 f38 ?v1) ?v3) f1) false))) false))))))
(assert (forall ((?v0 S3) (?v1 S3) (?v2 S23)) (let ((?v_0 (f43 f44 f40))) (=> (= (f3 f4 (f41 (f42 ?v_0 (f5 (f6 (f7 f8 ?v0) ?v1) f28)) ?v2)) f1) (=> (= (f3 f4 ?v1) f1) (= (f3 f4 (f41 (f42 ?v_0 (f9 (f39 f40 (f9 f10 ?v0)) ?v1)) ?v2)) f1))))))
(assert (forall ((?v0 S3) (?v1 S3) (?v2 S5) (?v3 S23)) (not (= (f9 (f39 f40 (f9 f10 ?v0)) ?v1) (f41 (f42 (f43 f44 f40) (f5 f12 ?v2)) ?v3)))))
(assert (forall ((?v0 S5) (?v1 S23) (?v2 S3) (?v3 S23)) (let ((?v_0 (f43 f44 f40))) (not (= (f41 (f42 ?v_0 (f5 f12 ?v0)) ?v1) (f41 (f42 ?v_0 (f9 f10 ?v2)) ?v3))))))
(assert (forall ((?v0 S3) (?v1 S23) (?v2 S3) (?v3 S23)) (let ((?v_0 (f43 f44 f40))) (= (= (f41 (f42 ?v_0 (f9 f10 ?v0)) ?v1) (f41 (f42 ?v_0 (f9 f10 ?v2)) ?v3)) (and (= ?v0 ?v2) (= ?v1 ?v3))))))
(assert (forall ((?v0 S5) (?v1 S23) (?v2 S5) (?v3 S23)) (let ((?v_0 (f43 f44 f40))) (= (= (f41 (f42 ?v_0 (f5 f12 ?v0)) ?v1) (f41 (f42 ?v_0 (f5 f12 ?v2)) ?v3)) (and (= ?v0 ?v2) (= ?v1 ?v3))))))
(assert (forall ((?v0 S3) (?v1 S23) (?v2 S3)) (let ((?v_0 (f43 f44 f40))) (= (= (f41 (f42 ?v_0 ?v0) ?v1) (f41 (f42 ?v_0 ?v2) ?v1)) (= ?v0 ?v2)))))
(assert (forall ((?v0 S3) (?v1 S3) (?v2 S23)) (let ((?v_0 (f43 f44 f40))) (=> (= (f3 (f37 f38 ?v0) ?v1) f1) (= (f3 (f37 f38 (f41 (f42 ?v_0 ?v0) ?v2)) (f41 (f42 ?v_0 ?v1) ?v2)) f1)))))
(assert (forall ((?v0 S23) (?v1 S5)) (=> (= (f45 (f46 f47 f4) ?v0) f1) (= (f3 f4 (f41 (f42 (f43 f44 f40) (f5 f12 ?v1)) ?v0)) f1))))
(assert (forall ((?v0 S5)) (= (f48 f49 (f5 f12 ?v0)) f28)))
(assert (forall ((?v0 S3)) (= (= (f3 f4 ?v0) f1) (or (exists ((?v1 S23) (?v2 S5)) (and (= ?v0 (f41 (f42 (f43 f44 f40) (f5 f12 ?v2)) ?v1)) (= (f45 (f46 f47 f4) ?v1) f1))) (or (exists ((?v1 S3)) (and (= ?v0 (f9 f10 ?v1)) (= (f3 f4 ?v1) f1))) (exists ((?v1 S3) (?v2 S3) (?v3 S23)) (let ((?v_0 (f43 f44 f40))) (and (= ?v0 (f41 (f42 ?v_0 (f9 (f39 f40 (f9 f10 ?v1)) ?v2)) ?v3)) (and (= (f3 f4 (f41 (f42 ?v_0 (f5 (f6 (f7 f8 ?v1) ?v2) f28)) ?v3)) f1) (= (f3 f4 ?v2) f1))))))))))
(assert (forall ((?v0 S3) (?v1 S3)) (= (f5 (f6 (f7 f50 ?v0) ?v1) f28) (f5 (f6 (f7 f8 ?v0) ?v1) f28))))
(check-sat)
(exit)
